10	6	3.85
2 6 1 4 2 3 3 3 4 5 5 6 6 6 5 1 2 2 9 4 1 5 3 6 7
2 5 1 6 2 4 3 3 5 5 6 3 2 1 5 5 4
2 2 1 2 5 1 3 3 1 4 9 5 6
2 2 4 6 5 4 6 1 7 2 3 3 6 4 4 5 6 6 8
2 1 3 4 4 3 6 4 9 5 4 6 3
2 5 1 9 2 6 3 5 5 7 6 9 6 1 6 2 1 3 6 4 2 5 9 6 5
2 5 1 5 2 1 4 2 5 2 6 1 1 1 4
2 3 1 8 2 1 6 5 6 1 8 2 2 3 9 4 6 5 6 6 1
2 6 1 2 2 3 3 3 4 9 5 4 6 4 1 6 2
2 5 1 2 2 6 4 3 5 9 6 3 3 2 5 4 7 6 6
